c This Formular is generated by mcnf
c
c    horn? no 
c    forced? no 
c    mixed sat? no 
c    clause length = 3 
c
p cnf 20  91 
 -17 -12 -5 0
-14 -10 6 0
6 20 9 0
-12 -5 -9 0
-2 -3 -16 0
-10 -16 7 0
-9 -5 12 0
-3 2 -4 0
-20 18 9 0
14 -12 -17 0
14 -8 19 0
16 -3 -12 0
12 -20 3 0
-3 -11 15 0
12 9 3 0
-20 13 -8 0
12 17 9 0
-7 -10 -13 0
-11 -2 -10 0
2 -9 -4 0
-2 -7 -1 0
%
0

70 37 8 13 83 18 7 37 14 53 22 99 14 34 53 85 14 56 20 31
